Route 1: 183 131 137 117 179 62 33 192 36 34 4 63 100 177 134 74 162 94 165 135 170 14 91 66 11 142 166 90 157 133 89 180 3 104 158 144 17 111 113 110 106 76 149 54 109 12 2 28 97 188 108 20 30 190 52 175 1 140 72 39 115
Route 2: 199 23 73 151 45 8 26 161 79 150 181 197 167 194 40 95 128 78 32 193 21 146 68 13 27 44 38 124 7 138 107 57 173 58 16 84 141 198 10 93 121 189 83 98 64 96 24 50 136 114 46 86 154 169 126
Route 3: 164 47 41 67 152 77 35 139 65 31 48 71 92 19 43 103 195 15 172 120 81 51 102 178 122 37 59 29 160 147 129 9 49 125 159 185 42 101 127 187 112 155 85 99 53 163
Route 4: 18 168 118 56 61 116 119 6 60 143 132 88 191 200 184 145 196 176 105 130 123 174 69 75 186 5 156 55 70 153 182 82 25 171 87 148 22 80
Vehicles: 4
Distance: 5747.40
